c Cardinality constraint <=k(x_1,...,x_n) for k = 5 and n = 6.
p cnf 31 50
-1 7 0
-8 0
-9 0
-10 0
-11 0
-2 12 0
-7 12 0
-2 -7 13 0
-8 13 0
-2 -8 14 0
-9 14 0
-2 -9 15 0
-10 15 0
-2 -10 16 0
-11 16 0
-2 -11 0
-3 17 0
-12 17 0
-3 -12 18 0
-13 18 0
-3 -13 19 0
-14 19 0
-3 -14 20 0
-15 20 0
-3 -15 21 0
-16 21 0
-3 -16 0
-4 22 0
-17 22 0
-4 -17 23 0
-18 23 0
-4 -18 24 0
-19 24 0
-4 -19 25 0
-20 25 0
-4 -20 26 0
-21 26 0
-4 -21 0
-5 27 0
-22 27 0
-5 -22 28 0
-23 28 0
-5 -23 29 0
-24 29 0
-5 -24 30 0
-25 30 0
-5 -25 31 0
-26 31 0
-5 -26 0
-6 -31 0
